Geographic Exponential Decay
40 239 228 88 28 274 236 224 2 231 164 72 131 278 118 18 82 311 94 26 126 30 111 148 272 281 289 216 116 249 305 177 137 40 95 128 35 315 203 162 38
p edge 320 1234
e 0 189 5.0
e 0 25 1.0
e 1 208 1.0
e 2 13 83.0
e 2 8 30.0
e 2 42 62.0
e 2 111 96.0
e 2 60 65.0
e 2 299 98.0
e 2 156 20.0
e 2 35 91.0
e 2 237 45.0
e 2 93 15.0
e 2 183 50.0
e 2 269 27.0
e 2 194 33.0
e 2 306 84.0
e 2 138 100.0
e 2 162 37.0
e 2 18 3.0
e 2 201 29.0
e 2 39 67.0
e 2 85 76.0
e 2 109 54.0
e 2 65 16.0
e 2 117 50.0
e 2 225 2.0
e 2 62 64.0
e 2 202 4.0
e 2 20 84.0
e 3 242 1.0
e 4 150 1.0
e 5 44 3.0
e 6 285 1.0
e 7 226 2.0
e 7 203 76.0
e 9 190 1.0
e 9 313 4.0
e 10 86 4.0
e 11 306 12.0
e 12 70 1.0
e 13 171 5.0
e 14 301 1.0
e 15 216 83.0
e 15 220 15.0
e 15 254 21.0
e 15 57 7.0
e 15 258 4.0
e 15 3 7.0
e 15 278 92.0
e 16 235 8.0
e 17 44 1.0
e 18 276 87.0
e 18 66 100.0
e 18 56 85.0
e 18 284 22.0
e 18 60 7.0
e 18 15 89.0
e 18 11 99.0
e 18 89 96.0
e 18 103 16.0
e 18 249 34.0
e 18 107 96.0
e 18 141 84.0
e 18 312 3.0
e 18 192 58.0
e 18 187 3.0
e 18 45 95.0
e 18 244 30.0
e 18 114 82.0
e 18 90 58.0
e 18 94 67.0
e 18 19 95.0
e 18 250 72.0
e 18 186 40.0
e 18 130 4.0
e 18 3 56.0
e 18 62 68.0
e 21 116 25.0
e 22 216 15.0
e 22 293 5.0
e 23 72 81.0
e 24 284 2.0
e 26 193 20.0
e 26 315 8.0
e 26 22 8.0
e 26 308 5.0
e 26 118 52.0
e 26 175 81.0
e 26 51 54.0
e 26 96 34.0
e 26 9 56.0
e 26 102 98.0
e 26 172 12.0
e 26 230 96.0
e 26 71 47.0
e 26 281 76.0
e 26 84 2.0
e 26 294 36.0
e 26 0 69.0
e 26 32 20.0
e 26 82 39.0
e 26 28 67.0
e 26 90 92.0
e 26 171 70.0
e 26 101 93.0
e 26 29 84.0
e 26 291 93.0
e 26 137 66.0
e 26 132 17.0
e 27 121 31.0
e 27 261 15.0
e 27 263 4.0
e 27 60 23.0
e 27 245 12.0
e 27 122 13.0
e 27 256 6.0
e 28 165 99.0
e 28 52 80.0
e 28 88 73.0
e 28 318 62.0
e 28 19 52.0
e 28 212 43.0
e 28 248 58.0
e 28 3 58.0
e 28 291 73.0
e 28 179 79.0
e 28 155 75.0
e 28 162 56.0
e 28 167 90.0
e 28 69 65.0
e 28 262 15.0
e 28 267 11.0
e 28 16 23.0
e 28 302 40.0
e 28 51 50.0
e 28 101 10.0
e 28 67 7.0
e 28 95 31.0
e 28 22 97.0
e 28 292 79.0
e 28 185 89.0
e 28 149 74.0
e 30 94 92.0
e 30 212 78.0
e 30 163 83.0
e 30 182 11.0
e 30 267 99.0
e 30 314 22.0
e 30 96 62.0
e 30 200 2.0
e 30 135 28.0
e 30 82 88.0
e 30 188 100.0
e 30 27 97.0
e 30 202 63.0
e 30 289 59.0
e 30 131 56.0
e 30 100 31.0
e 30 28 86.0
e 30 112 91.0
e 30 129 8.0
e 30 97 56.0
e 30 36 53.0
e 30 196 61.0
e 30 47 75.0
e 30 29 46.0
e 30 98 91.0
e 30 206 69.0
e 30 11 17.0
e 31 41 1.0
e 33 60 1.0
e 34 263 2.0
e 35 119 2.0
e 35 284 64.0
e 35 181 17.0
e 35 248 49.0
e 35 75 23.0
e 35 108 99.0
e 35 121 27.0
e 35 291 7.0
e 35 105 32.0
e 35 297 67.0
e 35 63 31.0
e 35 34 52.0
e 35 164 76.0
e 35 156 99.0
e 35 52 13.0
e 35 249 98.0
e 35 0 19.0
e 35 173 66.0
e 35 307 88.0
e 35 245 87.0
e 35 182 96.0
e 35 145 69.0
e 35 183 8.0
e 35 169 89.0
e 35 142 13.0
e 35 67 10.0
e 36 6 5.0
e 37 175 4.0
e 37 182 4.0
e 38 259 2.0
e 38 155 14.0
e 38 287 16.0
e 38 172 20.0
e 38 285 63.0
e 38 301 45.0
e 38 156 9.0
e 38 206 65.0
e 38 185 35.0
e 38 286 90.0
e 38 104 30.0
e 38 0 27.0
e 38 34 17.0
e 38 75 90.0
e 38 157 48.0
e 38 10 63.0
e 38 22 3.0
e 38 16 99.0
e 38 314 49.0
e 38 176 16.0
e 38 119 44.0
e 38 121 90.0
e 38 288 12.0
e 38 292 52.0
e 38 240 93.0
e 38 127 38.0
e 38 291 73.0
e 39 245 2.0
e 39 79 1.0
e 39 136 3.0
e 40 118 89.0
e 40 119 36.0
e 40 114 72.0
e 40 253 9.0
e 40 52 26.0
e 40 214 3.0
e 40 236 19.0
e 40 190 7.0
e 40 235 59.0
e 40 46 31.0
e 40 125 60.0
e 40 226 93.0
e 40 227 64.0
e 40 8 12.0
e 40 274 40.0
e 40 219 26.0
e 40 80 95.0
e 40 252 51.0
e 40 41 41.0
e 40 130 70.0
e 40 6 62.0
e 40 81 82.0
e 40 58 66.0
e 40 127 84.0
e 40 281 32.0
e 40 115 3.0
e 40 17 90.0
e 43 152 21.0
e 46 318 4.0
e 48 249 26.0
e 49 269 5.0
e 50 125 5.0
e 50 135 11.0
e 53 287 4.0
e 54 283 1.0
e 54 66 3.0
e 55 59 3.0
e 55 140 1.0
e 56 296 12.0
e 56 142 1.0
e 56 35 73.0
e 57 280 2.0
e 58 59 1.0
e 61 249 13.0
e 64 144 1.0
e 64 126 8.0
e 64 262 7.0
e 64 182 9.0
e 68 174 1.0
e 68 207 3.0
e 71 204 7.0
e 71 121 33.0
e 71 101 2.0
e 71 83 23.0
e 71 54 3.0
e 71 239 17.0
e 72 111 12.0
e 72 85 35.0
e 72 78 10.0
e 72 71 23.0
e 72 258 61.0
e 72 285 73.0
e 72 150 24.0
e 72 293 31.0
e 72 214 96.0
e 72 54 64.0
e 72 76 95.0
e 72 282 24.0
e 72 81 50.0
e 72 15 13.0
e 72 42 45.0
e 72 94 20.0
e 72 61 18.0
e 72 193 26.0
e 72 58 9.0
e 72 231 74.0
e 72 33 30.0
e 72 268 83.0
e 72 89 71.0
e 72 241 88.0
e 72 286 32.0
e 72 306 52.0
e 73 18 25.0
e 74 152 4.0
e 74 71 19.0
e 76 202 1.0
e 76 147 9.0
e 76 67 11.0
e 77 180 1.0
e 78 18 2.0
e 79 41 3.0
e 80 11 1.0
e 80 268 6.0
e 80 195 1.0
e 82 84 41.0
e 82 100 87.0
e 82 76 89.0
e 82 94 87.0
e 82 241 50.0
e 82 169 26.0
e 82 83 70.0
e 82 270 97.0
e 82 221 44.0
e 82 252 93.0
e 82 306 5.0
e 82 210 41.0
e 82 269 4.0
e 82 116 48.0
e 82 129 38.0
e 82 15 66.0
e 82 85 12.0
e 82 202 91.0
e 82 296 86.0
e 82 172 20.0
e 82 66 36.0
e 82 251 97.0
e 82 300 42.0
e 82 67 12.0
e 82 245 18.0
e 83 249 30.0
e 83 44 1.0
e 86 149 5.0
e 87 58 7.0
e 87 107 7.0
e 87 296 1.0
e 87 285 7.0
e 88 150 88.0
e 88 229 25.0
e 88 70 53.0
e 88 179 95.0
e 88 123 93.0
e 88 5 6.0
e 88 147 28.0
e 88 270 50.0
e 88 54 8.0
e 88 216 75.0
e 88 195 29.0
e 88 153 34.0
e 88 129 10.0
e 88 57 7.0
e 88 122 73.0
e 88 143 86.0
e 88 246 41.0
e 88 139 55.0
e 88 22 7.0
e 88 286 92.0
e 88 219 89.0
e 88 313 10.0
e 88 187 30.0
e 88 233 95.0
e 88 296 3.0
e 88 203 3.0
e 91 127 1.0
e 91 102 4.0
e 92 108 2.0
e 92 296 1.0
e 93 215 12.0
e 93 211 11.0
e 93 194 10.0
e 94 160 100.0
e 94 109 43.0
e 94 7 80.0
e 94 81 94.0
e 94 201 42.0
e 94 218 67.0
e 94 114 51.0
e 94 232 28.0
e 94 59 40.0
e 94 105 6.0
e 94 76 88.0
e 94 122 2.0
e 94 292 64.0
e 94 193 76.0
e 94 9 65.0
e 94 23 42.0
e 94 318 87.0
e 94 96 99.0
e 94 144 83.0
e 94 28 98.0
e 94 159 56.0
e 94 83 8.0
e 94 194 71.0
e 95 100 38.0
e 95 181 79.0
e 95 225 99.0
e 95 195 82.0
e 95 310 4.0
e 95 296 27.0
e 95 1 41.0
e 95 288 90.0
e 95 86 83.0
e 95 84 4.0
e 95 89 27.0
e 95 3 36.0
e 95 74 14.0
e 95 289 79.0
e 95 106 68.0
e 95 67 43.0
e 95 87 32.0
e 95 126 6.0
e 95 46 17.0
e 95 217 82.0
e 95 156 42.0
e 95 236 20.0
e 95 35 67.0
e 95 33 23.0
e 95 125 100.0
e 95 114 57.0
e 99 40 12.0
e 103 209 11.0
e 104 224 92.0
e 110 261 2.0
e 110 65 1.0
e 111 288 98.0
e 111 147 87.0
e 111 289 7.0
e 111 13 91.0
e 111 40 38.0
e 111 73 99.0
e 111 215 63.0
e 111 86 29.0
e 111 104 63.0
e 111 311 77.0
e 111 248 76.0
e 111 33 73.0
e 111 155 62.0
e 111 198 11.0
e 111 310 89.0
e 111 276 63.0
e 111 136 35.0
e 111 247 48.0
e 111 121 95.0
e 111 152 15.0
e 111 251 9.0
e 111 154 10.0
e 111 194 2.0
e 111 280 62.0
e 111 229 55.0
e 112 233 9.0
e 112 69 5.0
e 112 114 19.0
e 113 255 6.0
e 113 106 3.0
e 113 110 7.0
e 113 212 8.0
e 114 313 16.0
e 114 288 2.0
e 116 54 88.0
e 116 167 64.0
e 116 214 26.0
e 116 65 41.0
e 116 289 64.0
e 116 55 14.0
e 116 291 95.0
e 116 190 84.0
e 116 56 93.0
e 116 147 12.0
e 116 197 54.0
e 116 67 15.0
e 116 57 74.0
e 116 249 90.0
e 116 261 89.0
e 116 221 80.0
e 116 6 69.0
e 116 136 49.0
e 116 85 18.0
e 116 268 73.0
e 116 242 38.0
e 116 88 21.0
e 116 230 81.0
e 116 139 1.0
e 116 297 69.0
e 118 231 100.0
e 118 18 79.0
e 118 111 79.0
e 118 308 97.0
e 118 159 26.0
e 118 7 58.0
e 118 184 71.0
e 118 315 79.0
e 118 312 74.0
e 118 67 57.0
e 118 171 95.0
e 118 284 76.0
e 118 187 5.0
e 118 114 48.0
e 118 302 47.0
e 118 121 30.0
e 118 46 52.0
e 118 167 10.0
e 118 139 46.0
e 118 92 72.0
e 118 221 66.0
e 118 14 93.0
e 118 57 88.0
e 118 287 24.0
e 118 103 21.0
e 120 272 22.0
e 121 314 13.0
e 121 173 10.0
e 121 234 34.0
e 121 152 41.0
e 121 253 3.0
e 121 86 43.0
e 121 304 12.0
e 121 172 17.0
e 123 247 3.0
e 124 75 1.0
e 124 35 45.0
e 126 279 66.0
e 126 120 87.0
e 126 101 10.0
e 126 201 68.0
e 126 289 2.0
e 126 31 70.0
e 126 44 73.0
e 126 148 17.0
e 126 138 19.0
e 126 273 32.0
e 126 275 91.0
e 126 136 40.0
e 126 208 3.0
e 126 282 31.0
e 126 184 1.0
e 126 288 69.0
e 126 179 34.0
e 126 32 50.0
e 126 181 49.0
e 126 248 61.0
e 126 267 35.0
e 126 318 53.0
e 126 302 26.0
e 126 12 52.0
e 126 61 86.0
e 128 267 37.0
e 128 253 25.0
e 128 25 57.0
e 128 71 84.0
e 128 199 77.0
e 128 193 60.0
e 128 69 66.0
e 128 140 19.0
e 128 5 80.0
e 128 197 80.0
e 128 81 67.0
e 128 29 42.0
e 128 249 56.0
e 128 143 22.0
e 128 126 82.0
e 128 270 64.0
e 128 233 33.0
e 128 70 29.0
e 128 46 54.0
e 128 175 82.0
e 128 188 20.0
e 128 161 37.0
e 128 254 81.0
e 128 226 82.0
e 128 60 9.0
e 128 62 24.0
e 128 106 15.0
e 129 317 6.0
e 131 71 77.0
e 131 249 14.0
e 131 69 12.0
e 131 196 69.0
e 131 237 56.0
e 131 197 61.0
e 131 154 4.0
e 131 202 33.0
e 131 0 23.0
e 131 280 91.0
e 131 177 57.0
e 131 132 44.0
e 131 106 34.0
e 131 121 63.0
e 131 44 34.0
e 131 49 23.0
e 131 149 37.0
e 131 273 59.0
e 131 70 50.0
e 131 32 86.0
e 131 10 95.0
e 131 246 8.0
e 131 152 87.0
e 131 109 9.0
e 131 318 85.0
e 131 185 29.0
e 132 106 4.0
e 132 239 36.0
e 133 308 16.0
e 134 194 4.0
e 135 177 73.0
e 135 147 6.0
e 137 226 23.0
e 137 209 2.0
e 137 223 97.0
e 137 305 18.0
e 137 43 13.0
e 137 257 29.0
e 137 159 82.0
e 137 212 80.0
e 137 9 52.0
e 137 141 17.0
e 137 236 82.0
e 137 172 66.0
e 137 179 34.0
e 137 62 13.0
e 137 135 42.0
e 137 101 26.0
e 137 2 68.0
e 137 177 78.0
e 137 66 48.0
e 137 247 39.0
e 137 259 61.0
e 137 10 15.0
e 137 289 34.0
e 137 198 86.0
e 137 131 78.0
e 137 176 90.0
e 146 119 1.0
e 146 93 2.0
e 147 53 9.0
e 147 229 18.0
e 148 133 34.0
e 148 215 89.0
e 148 167 3.0
e 148 171 2.0
e 148 119 14.0
e 148 288 43.0
e 148 15 36.0
e 148 163 44.0
e 148 261 91.0
e 148 155 84.0
e 148 296 87.0
e 148 18 11.0
e 148 23 34.0
e 148 276 27.0
e 148 240 51.0
e 148 78 5.0
e 148 314 62.0
e 148 121 80.0
e 148 13 15.0
e 148 236 84.0
e 148 246 41.0
e 148 272 91.0
e 148 166 39.0
e 148 39 90.0
e 148 29 59.0
e 148 89 55.0
e 151 237 3.0
e 151 139 1.0
e 152 270 23.0
e 152 1 18.0
e 158 82 47.0
e 158 95 37.0
e 161 259 3.0
e 162 284 82.0
e 162 291 39.0
e 162 26 39.0
e 162 91 8.0
e 162 153 20.0
e 162 109 35.0
e 162 4 43.0
e 162 134 58.0
e 162 315 8.0
e 162 296 41.0
e 162 108 82.0
e 162 175 87.0
e 162 178 95.0
e 162 254 72.0
e 162 307 84.0
e 162 120 54.0
e 162 205 16.0
e 162 176 94.0
e 162 31 42.0
e 162 106 5.0
e 162 255 8.0
e 162 292 65.0
e 162 38 61.0
e 162 5 51.0
e 162 263 21.0
e 164 32 56.0
e 164 250 23.0
e 164 302 20.0
e 164 48 33.0
e 164 138 13.0
e 164 70 39.0
e 164 315 9.0
e 164 36 15.0
e 164 104 99.0
e 164 101 51.0
e 164 185 28.0
e 164 8 13.0
e 164 172 73.0
e 164 287 31.0
e 164 288 7.0
e 164 77 49.0
e 164 303 3.0
e 164 178 87.0
e 164 33 17.0
e 164 117 8.0
e 164 286 51.0
e 164 249 73.0
e 164 289 75.0
e 164 265 43.0
e 164 290 65.0
e 164 167 21.0
e 165 11 38.0
e 165 318 27.0
e 165 56 39.0
e 165 313 37.0
e 165 112 13.0
e 165 213 43.0
e 165 316 47.0
e 165 287 46.0
e 165 299 29.0
e 165 306 1.0
e 165 18 89.0
e 165 204 17.0
e 165 155 30.0
e 168 208 1.0
e 170 309 1.0
e 173 0 3.0
e 173 115 9.0
e 177 215 25.0
e 177 130 88.0
e 177 146 29.0
e 177 142 21.0
e 177 58 52.0
e 177 264 49.0
e 177 248 63.0
e 177 9 19.0
e 177 97 97.0
e 177 129 15.0
e 177 28 58.0
e 177 158 92.0
e 177 47 54.0
e 177 198 37.0
e 177 280 29.0
e 177 210 84.0
e 177 98 81.0
e 177 269 1.0
e 177 118 69.0
e 177 232 97.0
e 177 261 59.0
e 177 231 49.0
e 177 190 31.0
e 177 317 62.0
e 189 274 50.0
e 191 193 1.0
e 191 1 4.0
e 198 207 15.0
e 198 112 12.0
e 198 174 15.0
e 198 113 22.0
e 200 163 11.0
e 200 88 43.0
e 200 199 9.0
e 200 65 23.0
e 200 255 13.0
e 200 2 39.0
e 203 311 43.0
e 203 86 65.0
e 203 228 24.0
e 203 99 63.0
e 203 121 9.0
e 203 284 54.0
e 203 219 16.0
e 203 23 33.0
e 203 309 33.0
e 203 70 99.0
e 203 217 65.0
e 203 292 70.0
e 203 201 6.0
e 203 268 40.0
e 203 95 40.0
e 203 80 75.0
e 203 22 74.0
e 203 59 26.0
e 203 293 44.0
e 203 298 1.0
e 203 9 35.0
e 203 6 17.0
e 203 185 82.0
e 203 148 79.0
e 203 54 50.0
e 204 152 5.0
e 204 27 17.0
e 209 169 7.0
e 209 294 2.0
e 213 203 6.0
e 216 75 54.0
e 216 33 77.0
e 216 281 24.0
e 216 100 83.0
e 216 258 13.0
e 216 43 60.0
e 216 252 64.0
e 216 114 97.0
e 216 110 83.0
e 216 283 16.0
e 216 81 42.0
e 216 42 58.0
e 216 291 61.0
e 216 230 56.0
e 216 96 54.0
e 216 149 90.0
e 216 249 77.0
e 216 115 46.0
e 216 40 56.0
e 216 231 68.0
e 216 181 76.0
e 216 152 26.0
e 216 196 16.0
e 216 129 34.0
e 221 38 11.0
e 222 289 44.0
e 222 272 31.0
e 222 167 10.0
e 222 208 12.0
e 224 157 71.0
e 224 54 43.0
e 224 24 47.0
e 224 48 26.0
e 224 215 45.0
e 224 243 19.0
e 224 79 86.0
e 224 131 56.0
e 224 78 43.0
e 224 72 7.0
e 224 146 95.0
e 224 97 89.0
e 224 203 27.0
e 224 100 24.0
e 224 281 47.0
e 224 175 30.0
e 224 309 16.0
e 224 64 9.0
e 224 173 13.0
e 224 174 69.0
e 224 233 80.0
e 224 253 51.0
e 224 152 1.0
e 224 297 80.0
e 224 60 3.0
e 224 76 72.0
e 225 99 2.0
e 225 270 11.0
e 228 40 92.0
e 228 252 11.0
e 228 255 40.0
e 228 178 64.0
e 228 116 27.0
e 228 244 75.0
e 228 52 22.0
e 228 118 68.0
e 228 88 79.0
e 228 106 76.0
e 228 185 65.0
e 228 218 37.0
e 228 170 71.0
e 228 58 90.0
e 228 236 36.0
e 228 191 98.0
e 228 55 24.0
e 228 14 83.0
e 228 84 69.0
e 228 68 80.0
e 228 123 4.0
e 228 56 88.0
e 228 131 78.0
e 228 253 15.0
e 228 11 66.0
e 228 30 68.0
e 231 213 22.0
e 231 30 53.0
e 231 134 16.0
e 231 281 98.0
e 231 272 96.0
e 231 31 64.0
e 231 111 83.0
e 231 175 37.0
e 231 314 9.0
e 231 244 10.0
e 231 300 85.0
e 231 66 23.0
e 231 110 21.0
e 231 25 21.0
e 231 210 41.0
e 231 38 63.0
e 231 6 35.0
e 231 159 2.0
e 231 245 3.0
e 231 264 41.0
e 231 79 66.0
e 231 9 75.0
e 231 290 47.0
e 235 133 24.0
e 235 107 16.0
e 235 108 2.0
e 235 104 18.0
e 235 226 8.0
e 236 218 2.0
e 236 43 18.0
e 236 268 10.0
e 236 248 30.0
e 236 123 46.0
e 236 90 42.0
e 236 26 19.0
e 236 249 80.0
e 236 187 39.0
e 236 242 2.0
e 236 245 6.0
e 236 25 19.0
e 236 108 81.0
e 236 7 78.0
e 236 316 40.0
e 236 310 4.0
e 236 19 12.0
e 236 24 90.0
e 236 290 51.0
e 236 64 53.0
e 236 71 21.0
e 236 260 66.0
e 238 174 3.0
e 238 28 88.0
e 239 77 88.0
e 239 87 63.0
e 239 24 85.0
e 239 182 8.0
e 239 269 57.0
e 239 69 68.0
e 239 109 69.0
e 239 174 16.0
e 239 185 33.0
e 239 187 36.0
e 239 89 98.0
e 239 37 73.0
e 239 262 8.0
e 239 44 77.0
e 239 191 79.0
e 239 270 80.0
e 239 166 57.0
e 239 314 25.0
e 239 256 55.0
e 239 98 82.0
e 239 86 43.0
e 239 175 35.0
e 239 124 95.0
e 239 200 59.0
e 239 295 92.0
e 243 129 39.0
e 243 63 47.0
e 243 244 24.0
e 243 149 14.0
e 243 29 7.0
e 243 185 43.0
e 243 45 3.0
e 243 7 50.0
e 243 15 38.0
e 243 299 3.0
e 243 10 20.0
e 243 259 44.0
e 243 263 23.0
e 244 245 22.0
e 244 167 24.0
e 244 0 11.0
e 249 307 37.0
e 249 196 57.0
e 249 202 48.0
e 249 316 78.0
e 249 96 29.0
e 249 51 97.0
e 249 133 76.0
e 249 219 77.0
e 249 132 7.0
e 249 87 41.0
e 249 55 96.0
e 249 311 47.0
e 249 120 11.0
e 249 135 34.0
e 249 168 19.0
e 249 186 42.0
e 257 287 3.0
e 260 55 5.0
e 264 280 3.0
e 264 232 5.0
e 266 259 2.0
e 266 278 26.0
e 269 193 2.0
e 269 205 6.0
e 271 151 6.0
e 272 172 87.0
e 272 111 32.0
e 272 66 46.0
e 272 50 49.0
e 272 239 77.0
e 272 162 98.0
e 272 19 94.0
e 272 18 28.0
e 272 96 39.0
e 272 223 32.0
e 272 244 30.0
e 272 121 100.0
e 272 246 20.0
e 272 94 67.0
e 272 183 9.0
e 272 89 6.0
e 272 214 61.0
e 272 189 19.0
e 272 8 59.0
e 272 192 86.0
e 272 58 40.0
e 272 247 15.0
e 272 86 94.0
e 274 44 14.0
e 274 192 37.0
e 274 316 75.0
e 274 93 64.0
e 274 311 40.0
e 274 174 63.0
e 274 148 57.0
e 274 191 55.0
e 274 24 52.0
e 274 42 9.0
e 274 182 12.0
e 274 251 64.0
e 274 32 16.0
e 274 308 50.0
e 274 291 76.0
e 274 213 42.0
e 274 46 17.0
e 274 94 64.0
e 274 130 89.0
e 274 30 86.0
e 274 242 88.0
e 274 258 99.0
e 274 22 97.0
e 274 145 74.0
e 274 108 79.0
e 276 103 10.0
e 276 78 1.0
e 276 140 15.0
e 276 180 4.0
e 277 173 1.0
e 278 131 36.0
e 278 107 56.0
e 278 309 58.0
e 278 118 42.0
e 278 104 7.0
e 278 59 18.0
e 278 29 8.0
e 278 168 41.0
e 278 212 48.0
e 278 164 45.0
e 278 252 94.0
e 278 14 81.0
e 278 16 3.0
e 278 87 40.0
e 278 151 10.0
e 278 148 91.0
e 278 199 91.0
e 278 289 27.0
e 278 113 85.0
e 278 70 78.0
e 278 94 14.0
e 278 55 56.0
e 278 64 47.0
e 278 52 8.0
e 278 125 27.0
e 279 199 14.0
e 279 37 9.0
e 279 206 7.0
e 279 178 7.0
e 279 315 41.0
e 279 307 24.0
e 281 47 69.0
e 281 190 75.0
e 281 253 97.0
e 281 154 44.0
e 281 229 31.0
e 281 221 69.0
e 281 237 65.0
e 281 35 20.0
e 281 189 3.0
e 281 257 68.0
e 281 252 37.0
e 281 260 17.0
e 281 300 75.0
e 281 49 41.0
e 281 148 57.0
e 281 84 32.0
e 281 254 84.0
e 281 287 78.0
e 281 261 30.0
e 281 306 27.0
e 281 134 95.0
e 281 211 35.0
e 289 36 18.0
e 289 300 13.0
e 289 266 57.0
e 289 83 19.0
e 289 154 52.0
e 289 274 21.0
e 289 107 75.0
e 289 287 17.0
e 289 307 42.0
e 289 285 37.0
e 289 5 63.0
e 289 290 45.0
e 289 187 54.0
e 289 50 49.0
e 289 240 91.0
e 289 267 43.0
e 289 102 15.0
e 289 159 5.0
e 295 210 4.0
e 295 164 18.0
e 295 50 8.0
e 295 177 53.0
e 295 171 14.0
e 295 95 11.0
e 299 306 11.0
e 299 219 10.0
e 299 100 12.0
e 299 89 1.0
e 305 197 19.0
e 305 81 64.0
e 305 273 20.0
e 305 39 96.0
e 305 96 65.0
e 305 65 4.0
e 305 229 16.0
e 305 62 87.0
e 305 269 45.0
e 305 158 52.0
e 305 85 51.0
e 305 87 68.0
e 305 74 17.0
e 305 274 29.0
e 305 260 73.0
e 305 23 66.0
e 305 46 32.0
e 305 155 92.0
e 305 107 87.0
e 305 72 21.0
e 305 179 96.0
e 305 318 29.0
e 305 191 73.0
e 305 272 36.0
e 305 99 50.0
e 305 117 71.0
e 308 5 14.0
e 308 165 8.0
e 308 155 5.0
e 311 148 71.0
e 311 43 13.0
e 311 252 68.0
e 311 107 81.0
e 311 5 26.0
e 311 186 2.0
e 311 16 48.0
e 311 270 10.0
e 311 193 16.0
e 311 97 17.0
e 311 250 55.0
e 311 49 38.0
e 311 20 38.0
e 311 112 19.0
e 311 59 76.0
e 311 238 49.0
e 311 303 16.0
e 311 241 11.0
e 311 143 99.0
e 311 299 89.0
e 311 47 66.0
e 311 154 75.0
e 311 123 39.0
e 315 19 67.0
e 315 35 77.0
e 315 248 57.0
e 315 259 48.0
e 315 232 58.0
e 315 233 98.0
e 315 85 31.0
e 315 234 40.0
e 315 276 64.0
e 315 283 73.0
e 315 277 56.0
e 315 194 72.0
e 315 71 30.0
e 315 156 4.0
e 315 227 26.0
e 315 294 74.0
e 315 238 19.0
e 315 83 69.0
e 315 157 67.0
e 315 255 91.0
e 315 179 5.0
e 315 111 66.0
e 319 30 83.0
